128
Lattice="11.8 0.0 0.0 0.0 11.8 0.0 0.0 0.0 11.8" Properties=species:S:1:pos:R:3 pbc="T T T"
Cr       0.00000000       0.00000000       0.00000000
Cr       0.00000000       0.00000000       3.19400000
Cr       0.00000000       3.19400000       0.00000000
Cr       0.00000000       3.19400000       3.19400000
Cr       0.00000000       0.00000000       6.38800000
Cr       0.00000000       0.00000000       9.58200000
Cr       0.00000000       3.19400000       6.38800000
Cr       0.00000000       3.19400000       9.58200000
Cr       0.00000000       6.38800000       0.00000000
Cr       0.00000000       9.58200000       0.00000000
Cr       0.00000000       9.58200000       3.19400000
Cr       3.19400000       6.38800000       0.00000000
Cr       3.19400000       6.38800000       3.19400000
Cr       3.19400000       9.58200000       0.00000000
Cr       1.59700000       7.98500000       1.59700000
Cr       1.59700000       7.98500000       4.79100000
Cr       1.59700000      11.17900000       1.59700000
Cr       4.79100000       7.98500000       1.59700000
Cr       4.79100000      11.17900000       4.79100000
Cr       4.79100000      11.17900000       1.59700000
Cr       4.79100000       7.98500000       4.79100000
Cr       1.59700000      11.17900000       4.79100000
Cr       0.00000000       6.38800000       6.38800000
Cr       0.00000000       6.38800000       9.58200000
Cr       0.00000000       9.58200000       6.38800000
Cr       0.00000000       9.58200000       9.58200000
Cr       6.38800000       0.00000000       0.00000000
Cr       6.38800000       0.00000000       3.19400000
Cr       6.38800000       3.19400000       0.00000000
Cr       6.38800000       3.19400000       3.19400000
Cr       9.58200000       0.00000000       0.00000000
Cr       9.58200000       0.00000000       3.19400000
Cr       9.58200000       3.19400000       0.00000000
Cr       9.58200000       3.19400000       3.19400000
Cr       6.38800000       0.00000000       6.38800000
Cr       6.38800000       0.00000000       9.58200000
Cr       6.38800000       3.19400000       6.38800000
Cr       6.38800000       3.19400000       9.58200000
Cr       9.58200000       0.00000000       6.38800000
Cr       9.58200000       0.00000000       9.58200000
Cr       9.58200000       3.19400000       6.38800000
Cr       9.58200000       3.19400000       9.58200000
Cr       6.38800000       6.38800000       0.00000000
Cr       6.38800000       6.38800000       3.19400000
Cr       6.38800000       9.58200000       0.00000000
Cr       6.38800000       9.58200000       3.19400000
Cr       9.58200000       6.38800000       0.00000000
Cr       9.58200000       6.38800000       3.19400000
Cr       9.58200000       9.58200000       0.00000000
Cr       9.58200000       9.58200000       3.19400000
Cr       7.98500000       7.98500000       1.59700000
Cr       7.98500000       7.98500000       4.79100000
Cr       7.98500000      11.17900000       1.59700000
Cr      11.17900000       7.98500000       1.59700000
Cr      11.17900000      11.17900000       4.79100000
Cr      11.17900000      11.17900000       1.59700000
Cr      11.17900000       7.98500000       4.79100000
Cr       7.98500000      11.17900000       4.79100000
Cr       6.38800000       6.38800000       6.38800000
Cr       6.38800000       6.38800000       9.58200000
Cr       6.38800000       9.58200000       6.38800000
Cr       6.38800000       9.58200000       9.58200000
V        3.19400000       0.00000000       0.00000000
V        3.19400000       0.00000000       3.19400000
V        3.19400000       3.19400000       0.00000000
V        3.19400000       3.19400000       3.19400000
V        1.59700000       1.59700000       1.59700000
V        1.59700000       1.59700000       4.79100000
V        1.59700000       4.79100000       1.59700000
V        4.79100000       1.59700000       1.59700000
V        4.79100000       4.79100000       4.79100000
V        4.79100000       4.79100000       1.59700000
V        4.79100000       1.59700000       4.79100000
V        1.59700000       4.79100000       4.79100000
V        3.19400000       0.00000000       6.38800000
V        3.19400000       0.00000000       9.58200000
V        3.19400000       3.19400000       6.38800000
V        3.19400000       3.19400000       9.58200000
V        1.59700000       1.59700000       7.98500000
V        1.59700000       1.59700000      11.17900000
V        1.59700000       4.79100000       7.98500000
V        4.79100000       1.59700000       7.98500000
V        4.79100000       4.79100000      11.17900000
V        4.79100000       4.79100000       7.98500000
V        4.79100000       1.59700000      11.17900000
V        1.59700000       4.79100000      11.17900000
V        0.00000000       6.38800000       3.19400000
V        3.19400000       9.58200000       3.19400000
V        3.19400000       6.38800000       6.38800000
V        3.19400000       6.38800000       9.58200000
V        3.19400000       9.58200000       6.38800000
V        3.19400000       9.58200000       9.58200000
V        1.59700000       7.98500000       7.98500000
V        1.59700000       7.98500000      11.17900000
V        1.59700000      11.17900000       7.98500000
V        4.79100000       7.98500000       7.98500000
V        4.79100000      11.17900000      11.17900000
V        4.79100000      11.17900000       7.98500000
V        4.79100000       7.98500000      11.17900000
V        1.59700000      11.17900000      11.17900000
V        7.98500000       1.59700000       1.59700000
V        7.98500000       1.59700000       4.79100000
V        7.98500000       4.79100000       1.59700000
V       11.17900000       1.59700000       1.59700000
V       11.17900000       4.79100000       4.79100000
V       11.17900000       4.79100000       1.59700000
V       11.17900000       1.59700000       4.79100000
V        7.98500000       4.79100000       4.79100000
V        7.98500000       1.59700000       7.98500000
V        7.98500000       1.59700000      11.17900000
V        7.98500000       4.79100000       7.98500000
V       11.17900000       1.59700000       7.98500000
V       11.17900000       4.79100000      11.17900000
V       11.17900000       4.79100000       7.98500000
V       11.17900000       1.59700000      11.17900000
V        7.98500000       4.79100000      11.17900000
V        9.58200000       6.38800000       6.38800000
V        9.58200000       6.38800000       9.58200000
V        9.58200000       9.58200000       6.38800000
V        9.58200000       9.58200000       9.58200000
V        7.98500000       7.98500000       7.98500000
V        7.98500000       7.98500000      11.17900000
V        7.98500000      11.17900000       7.98500000
V       11.17900000       7.98500000       7.98500000
V       11.17900000      11.17900000      11.17900000
V       11.17900000      11.17900000       7.98500000
V       11.17900000       7.98500000      11.17900000
V        7.98500000      11.17900000      11.17900000
