128
Lattice="12.66 0.0 0.0 0.0 12.66 0.0 0.0 0.0 12.66" Properties=species:S:1:pos:R:3 pbc="T T T"
V        0.00000000       0.00000000       0.00000000
V        0.00000000       0.00000000       3.16500000
V        0.00000000       3.16500000       0.00000000
V        0.00000000       3.16500000       3.16500000
V        1.58250000       1.58250000       7.91250000
V        1.58250000       1.58250000      11.07750000
V        1.58250000       4.74750000       7.91250000
V        4.74750000       1.58250000       7.91250000
V        4.74750000       4.74750000      11.07750000
V        4.74750000       4.74750000       7.91250000
V        4.74750000       1.58250000      11.07750000
V        1.58250000       4.74750000      11.07750000
V        0.00000000       6.33000000       0.00000000
V        0.00000000       6.33000000       3.16500000
V        0.00000000       9.49500000       0.00000000
V        0.00000000       9.49500000       3.16500000
V        1.58250000       7.91250000       7.91250000
V        1.58250000       7.91250000      11.07750000
V        1.58250000      11.07750000       7.91250000
V        4.74750000       7.91250000       7.91250000
V        4.74750000      11.07750000      11.07750000
V        4.74750000      11.07750000       7.91250000
V        4.74750000       7.91250000      11.07750000
V        1.58250000      11.07750000      11.07750000
V        6.33000000       0.00000000       0.00000000
V        6.33000000       0.00000000       3.16500000
V        6.33000000       3.16500000       0.00000000
V        6.33000000       3.16500000       3.16500000
V        9.49500000       0.00000000       6.33000000
V        9.49500000       0.00000000       9.49500000
V        9.49500000       3.16500000       6.33000000
V        9.49500000       3.16500000       9.49500000
V        7.91250000       1.58250000       7.91250000
V        7.91250000       1.58250000      11.07750000
V        7.91250000       4.74750000       7.91250000
V       11.07750000       1.58250000       7.91250000
V       11.07750000       4.74750000      11.07750000
V       11.07750000       4.74750000       7.91250000
V       11.07750000       1.58250000      11.07750000
V        7.91250000       4.74750000      11.07750000
V        6.33000000       6.33000000       0.00000000
V        6.33000000       6.33000000       3.16500000
V        6.33000000       9.49500000       0.00000000
V        6.33000000       9.49500000       3.16500000
V        9.49500000       6.33000000       6.33000000
V        9.49500000       6.33000000       9.49500000
V        9.49500000       9.49500000       6.33000000
V        9.49500000       9.49500000       9.49500000
V        7.91250000       7.91250000       7.91250000
V        7.91250000       7.91250000      11.07750000
V        7.91250000      11.07750000       7.91250000
V       11.07750000       7.91250000       7.91250000
V       11.07750000      11.07750000      11.07750000
V       11.07750000      11.07750000       7.91250000
V       11.07750000       7.91250000      11.07750000
V        7.91250000      11.07750000      11.07750000
Ta       3.16500000       0.00000000       0.00000000
Ta       3.16500000       0.00000000       3.16500000
Ta       3.16500000       3.16500000       0.00000000
Ta       3.16500000       3.16500000       3.16500000
Ta       1.58250000       1.58250000       1.58250000
Ta       1.58250000       1.58250000       4.74750000
Ta       1.58250000       4.74750000       1.58250000
Ta       4.74750000       1.58250000       1.58250000
Ta       4.74750000       4.74750000       4.74750000
Ta       4.74750000       4.74750000       1.58250000
Ta       4.74750000       1.58250000       4.74750000
Ta       1.58250000       4.74750000       4.74750000
Ta       0.00000000       0.00000000       6.33000000
Ta       0.00000000       0.00000000       9.49500000
Ta       0.00000000       3.16500000       6.33000000
Ta       0.00000000       3.16500000       9.49500000
Ta       3.16500000       0.00000000       6.33000000
Ta       3.16500000       0.00000000       9.49500000
Ta       3.16500000       3.16500000       6.33000000
Ta       3.16500000       3.16500000       9.49500000
Ta       3.16500000       6.33000000       0.00000000
Ta       3.16500000       6.33000000       3.16500000
Ta       3.16500000       9.49500000       0.00000000
Ta       3.16500000       9.49500000       3.16500000
Ta       1.58250000       7.91250000       1.58250000
Ta       1.58250000       7.91250000       4.74750000
Ta       1.58250000      11.07750000       1.58250000
Ta       4.74750000       7.91250000       1.58250000
Ta       4.74750000      11.07750000       4.74750000
Ta       4.74750000      11.07750000       1.58250000
Ta       4.74750000       7.91250000       4.74750000
Ta       1.58250000      11.07750000       4.74750000
Ta       0.00000000       6.33000000       6.33000000
Ta       0.00000000       6.33000000       9.49500000
Ta       0.00000000       9.49500000       6.33000000
Ta       0.00000000       9.49500000       9.49500000
Ta       3.16500000       6.33000000       6.33000000
Ta       3.16500000       6.33000000       9.49500000
Ta       3.16500000       9.49500000       6.33000000
Ta       3.16500000       9.49500000       9.49500000
Ta       9.49500000       0.00000000       0.00000000
Ta       9.49500000       0.00000000       3.16500000
Ta       9.49500000       3.16500000       0.00000000
Ta       9.49500000       3.16500000       3.16500000
Ta       7.91250000       1.58250000       1.58250000
Ta       7.91250000       1.58250000       4.74750000
Ta       7.91250000       4.74750000       1.58250000
Ta      11.07750000       1.58250000       1.58250000
Ta      11.07750000       4.74750000       4.74750000
Ta      11.07750000       4.74750000       1.58250000
Ta      11.07750000       1.58250000       4.74750000
Ta       7.91250000       4.74750000       4.74750000
Ta       6.33000000       0.00000000       6.33000000
Ta       6.33000000       0.00000000       9.49500000
Ta       6.33000000       3.16500000       6.33000000
Ta       6.33000000       3.16500000       9.49500000
Ta       9.49500000       6.33000000       0.00000000
Ta       9.49500000       6.33000000       3.16500000
Ta       9.49500000       9.49500000       0.00000000
Ta       9.49500000       9.49500000       3.16500000
Ta       7.91250000       7.91250000       1.58250000
Ta       7.91250000       7.91250000       4.74750000
Ta       7.91250000      11.07750000       1.58250000
Ta      11.07750000       7.91250000       1.58250000
Ta      11.07750000      11.07750000       4.74750000
Ta      11.07750000      11.07750000       1.58250000
Ta      11.07750000       7.91250000       4.74750000
Ta       7.91250000      11.07750000       4.74750000
Ta       6.33000000       6.33000000       6.33000000
Ta       6.33000000       6.33000000       9.49500000
Ta       6.33000000       9.49500000       6.33000000
Ta       6.33000000       9.49500000       9.49500000
