128
Lattice="11.8 0.0 0.0 0.0 11.8 0.0 0.0 0.0 11.8" Properties=species:S:1:pos:R:3 pbc="T T T"
V        0.00000000       0.00000000       0.00000000
V        0.00000000       0.00000000       2.95000000
V        0.00000000       2.95000000       0.00000000
V        0.00000000       2.95000000       2.95000000
V        0.00000000       0.00000000       5.90000000
V        0.00000000       0.00000000       8.85000000
V        0.00000000       2.95000000       5.90000000
V        0.00000000       2.95000000       8.85000000
V        1.47500000       7.37500000       1.47500000
V        1.47500000       7.37500000       4.42500000
V        1.47500000      10.32500000       1.47500000
V        4.42500000       7.37500000       1.47500000
V        4.42500000      10.32500000       4.42500000
V        4.42500000      10.32500000       1.47500000
V        4.42500000       7.37500000       4.42500000
V        1.47500000      10.32500000       4.42500000
V        0.00000000       5.90000000       5.90000000
V        0.00000000       5.90000000       8.85000000
V        0.00000000       8.85000000       5.90000000
V        0.00000000       8.85000000       8.85000000
V        5.90000000       0.00000000       0.00000000
V        5.90000000       0.00000000       2.95000000
V        5.90000000       2.95000000       0.00000000
V        5.90000000       2.95000000       2.95000000
V        5.90000000       0.00000000       5.90000000
V        5.90000000       0.00000000       8.85000000
V        5.90000000       2.95000000       5.90000000
V        5.90000000       2.95000000       8.85000000
V        5.90000000       5.90000000       0.00000000
V        5.90000000       5.90000000       2.95000000
V        5.90000000       8.85000000       0.00000000
V        5.90000000       8.85000000       2.95000000
V       10.32500000       7.37500000       1.47500000
V        5.90000000       5.90000000       5.90000000
V        5.90000000       5.90000000       8.85000000
V        5.90000000       8.85000000       5.90000000
V        5.90000000       8.85000000       8.85000000
Cr       2.95000000       0.00000000       0.00000000
Cr       2.95000000       0.00000000       2.95000000
Cr       2.95000000       2.95000000       0.00000000
Cr       2.95000000       2.95000000       2.95000000
Cr       1.47500000       1.47500000       1.47500000
Cr       1.47500000       1.47500000       4.42500000
Cr       1.47500000       4.42500000       1.47500000
Cr       4.42500000       1.47500000       1.47500000
Cr       4.42500000       4.42500000       4.42500000
Cr       4.42500000       4.42500000       1.47500000
Cr       4.42500000       1.47500000       4.42500000
Cr       1.47500000       4.42500000       4.42500000
Cr       2.95000000       0.00000000       5.90000000
Cr       2.95000000       0.00000000       8.85000000
Cr       2.95000000       2.95000000       5.90000000
Cr       2.95000000       2.95000000       8.85000000
Cr       1.47500000       1.47500000       7.37500000
Cr       1.47500000       1.47500000      10.32500000
Cr       1.47500000       4.42500000       7.37500000
Cr       4.42500000       1.47500000       7.37500000
Cr       4.42500000       4.42500000      10.32500000
Cr       4.42500000       4.42500000       7.37500000
Cr       4.42500000       1.47500000      10.32500000
Cr       1.47500000       4.42500000      10.32500000
Cr       0.00000000       5.90000000       0.00000000
Cr       0.00000000       5.90000000       2.95000000
Cr       0.00000000       8.85000000       0.00000000
Cr       0.00000000       8.85000000       2.95000000
Cr       2.95000000       5.90000000       0.00000000
Cr       2.95000000       5.90000000       2.95000000
Cr       2.95000000       8.85000000       0.00000000
Cr       2.95000000       8.85000000       2.95000000
Cr       2.95000000       5.90000000       5.90000000
Cr       2.95000000       5.90000000       8.85000000
Cr       2.95000000       8.85000000       5.90000000
Cr       2.95000000       8.85000000       8.85000000
Cr       1.47500000       7.37500000       7.37500000
Cr       1.47500000       7.37500000      10.32500000
Cr       1.47500000      10.32500000       7.37500000
Cr       4.42500000       7.37500000       7.37500000
Cr       4.42500000      10.32500000      10.32500000
Cr       4.42500000      10.32500000       7.37500000
Cr       4.42500000       7.37500000      10.32500000
Cr       1.47500000      10.32500000      10.32500000
Cr       8.85000000       0.00000000       0.00000000
Cr       8.85000000       0.00000000       2.95000000
Cr       8.85000000       2.95000000       0.00000000
Cr       8.85000000       2.95000000       2.95000000
Cr       7.37500000       1.47500000       1.47500000
Cr       7.37500000       1.47500000       4.42500000
Cr       7.37500000       4.42500000       1.47500000
Cr      10.32500000       1.47500000       1.47500000
Cr      10.32500000       4.42500000       4.42500000
Cr      10.32500000       4.42500000       1.47500000
Cr      10.32500000       1.47500000       4.42500000
Cr       7.37500000       4.42500000       4.42500000
Cr       8.85000000       0.00000000       5.90000000
Cr       8.85000000       0.00000000       8.85000000
Cr       8.85000000       2.95000000       5.90000000
Cr       8.85000000       2.95000000       8.85000000
Cr       7.37500000       1.47500000       7.37500000
Cr       7.37500000       1.47500000      10.32500000
Cr       7.37500000       4.42500000       7.37500000
Cr      10.32500000       1.47500000       7.37500000
Cr      10.32500000       4.42500000      10.32500000
Cr      10.32500000       4.42500000       7.37500000
Cr      10.32500000       1.47500000      10.32500000
Cr       7.37500000       4.42500000      10.32500000
Cr       8.85000000       5.90000000       0.00000000
Cr       8.85000000       5.90000000       2.95000000
Cr       8.85000000       8.85000000       0.00000000
Cr       8.85000000       8.85000000       2.95000000
Cr       7.37500000       7.37500000       1.47500000
Cr       7.37500000       7.37500000       4.42500000
Cr       7.37500000      10.32500000       1.47500000
Cr      10.32500000      10.32500000       4.42500000
Cr      10.32500000      10.32500000       1.47500000
Cr      10.32500000       7.37500000       4.42500000
Cr       7.37500000      10.32500000       4.42500000
Cr       8.85000000       5.90000000       5.90000000
Cr       8.85000000       5.90000000       8.85000000
Cr       8.85000000       8.85000000       5.90000000
Cr       8.85000000       8.85000000       8.85000000
Cr       7.37500000       7.37500000       7.37500000
Cr       7.37500000       7.37500000      10.32500000
Cr       7.37500000      10.32500000       7.37500000
Cr      10.32500000       7.37500000       7.37500000
Cr      10.32500000      10.32500000      10.32500000
Cr      10.32500000      10.32500000       7.37500000
Cr      10.32500000       7.37500000      10.32500000
Cr       7.37500000      10.32500000      10.32500000
