128
Lattice="12.940000000000001 0.0 0.0 0.0 12.940000000000001 0.0 0.0 0.0 12.940000000000001" Properties=species:S:1:pos:R:3 pbc="T T T"
Ta       0.00000000       0.00000000       0.00000000
Ta       0.00000000       0.00000000       3.23500000
Ta       0.00000000       3.23500000       0.00000000
Ta       0.00000000       3.23500000       3.23500000
Ta       3.23500000       0.00000000       3.23500000
Ta       3.23500000       3.23500000       0.00000000
Ta       3.23500000       3.23500000       3.23500000
Ta       1.61750000       1.61750000       1.61750000
Ta       1.61750000       1.61750000       4.85250000
Ta       1.61750000       4.85250000       1.61750000
Ta       4.85250000       1.61750000       1.61750000
Ta       4.85250000       4.85250000       4.85250000
Ta       4.85250000       4.85250000       1.61750000
Ta       4.85250000       1.61750000       4.85250000
Ta       3.23500000       0.00000000       6.47000000
Ta       3.23500000       0.00000000       9.70500000
Ta       3.23500000       3.23500000       6.47000000
Ta       3.23500000       3.23500000       9.70500000
Ta       1.61750000       1.61750000       8.08750000
Ta       1.61750000       1.61750000      11.32250000
Ta       1.61750000       4.85250000       8.08750000
Ta       4.85250000       1.61750000       8.08750000
Ta       4.85250000       4.85250000      11.32250000
Ta       4.85250000       4.85250000       8.08750000
Ta       4.85250000       1.61750000      11.32250000
Ta       1.61750000       4.85250000      11.32250000
Ta       0.00000000       6.47000000       0.00000000
Ta       0.00000000       6.47000000       3.23500000
Ta       0.00000000       9.70500000       0.00000000
Ta       0.00000000       9.70500000       3.23500000
Ta       3.23500000       6.47000000       0.00000000
Ta       3.23500000       6.47000000       3.23500000
Ta       3.23500000       9.70500000       0.00000000
Ta       3.23500000       9.70500000       3.23500000
Ta       1.61750000       8.08750000       1.61750000
Ta       1.61750000       8.08750000       4.85250000
Ta       1.61750000      11.32250000       1.61750000
Ta       4.85250000       8.08750000       1.61750000
Ta       4.85250000      11.32250000       4.85250000
Ta       4.85250000      11.32250000       1.61750000
Ta       4.85250000       8.08750000       4.85250000
Ta       1.61750000      11.32250000       4.85250000
Ta       6.47000000       0.00000000       0.00000000
Ta       6.47000000       0.00000000       3.23500000
Ta       6.47000000       3.23500000       0.00000000
Ta       6.47000000       3.23500000       3.23500000
Ta       9.70500000       0.00000000       0.00000000
Ta       9.70500000       0.00000000       3.23500000
Ta       9.70500000       3.23500000       0.00000000
Ta       9.70500000       3.23500000       3.23500000
Ta       8.08750000       4.85250000       1.61750000
Ta       8.08750000       4.85250000       4.85250000
Ta       9.70500000       0.00000000       6.47000000
Ta       9.70500000       0.00000000       9.70500000
Ta       9.70500000       3.23500000       6.47000000
Ta       9.70500000       3.23500000       9.70500000
Ta       8.08750000       1.61750000       8.08750000
Ta       8.08750000       1.61750000      11.32250000
Ta       8.08750000       4.85250000       8.08750000
Ta      11.32250000       1.61750000       8.08750000
Ta      11.32250000       4.85250000      11.32250000
Ta      11.32250000       4.85250000       8.08750000
Ta      11.32250000       1.61750000      11.32250000
Ta       8.08750000       4.85250000      11.32250000
Ta       6.47000000       6.47000000       0.00000000
Ta       6.47000000       6.47000000       3.23500000
Ta       6.47000000       9.70500000       0.00000000
Ta       6.47000000       9.70500000       3.23500000
Ta       9.70500000       6.47000000       0.00000000
Ta       9.70500000       6.47000000       3.23500000
Ta       9.70500000       9.70500000       0.00000000
Ta       9.70500000       9.70500000       3.23500000
W        3.23500000       0.00000000       0.00000000
W        1.61750000       4.85250000       4.85250000
W        0.00000000       0.00000000       6.47000000
W        0.00000000       0.00000000       9.70500000
W        0.00000000       3.23500000       6.47000000
W        0.00000000       3.23500000       9.70500000
W        0.00000000       6.47000000       6.47000000
W        0.00000000       6.47000000       9.70500000
W        0.00000000       9.70500000       6.47000000
W        0.00000000       9.70500000       9.70500000
W        3.23500000       6.47000000       6.47000000
W        3.23500000       6.47000000       9.70500000
W        3.23500000       9.70500000       6.47000000
W        3.23500000       9.70500000       9.70500000
W        1.61750000       8.08750000       8.08750000
W        1.61750000       8.08750000      11.32250000
W        1.61750000      11.32250000       8.08750000
W        4.85250000       8.08750000       8.08750000
W        4.85250000      11.32250000      11.32250000
W        4.85250000      11.32250000       8.08750000
W        4.85250000       8.08750000      11.32250000
W        1.61750000      11.32250000      11.32250000
W        8.08750000       1.61750000       1.61750000
W        8.08750000       1.61750000       4.85250000
W       11.32250000       1.61750000       1.61750000
W       11.32250000       4.85250000       4.85250000
W       11.32250000       4.85250000       1.61750000
W       11.32250000       1.61750000       4.85250000
W        6.47000000       0.00000000       6.47000000
W        6.47000000       0.00000000       9.70500000
W        6.47000000       3.23500000       6.47000000
W        6.47000000       3.23500000       9.70500000
W        8.08750000       8.08750000       1.61750000
W        8.08750000       8.08750000       4.85250000
W        8.08750000      11.32250000       1.61750000
W       11.32250000       8.08750000       1.61750000
W       11.32250000      11.32250000       4.85250000
W       11.32250000      11.32250000       1.61750000
W       11.32250000       8.08750000       4.85250000
W        8.08750000      11.32250000       4.85250000
W        6.47000000       6.47000000       6.47000000
W        6.47000000       6.47000000       9.70500000
W        6.47000000       9.70500000       6.47000000
W        6.47000000       9.70500000       9.70500000
W        9.70500000       6.47000000       6.47000000
W        9.70500000       6.47000000       9.70500000
W        9.70500000       9.70500000       6.47000000
W        9.70500000       9.70500000       9.70500000
W        8.08750000       8.08750000       8.08750000
W        8.08750000       8.08750000      11.32250000
W        8.08750000      11.32250000       8.08750000
W       11.32250000       8.08750000       8.08750000
W       11.32250000      11.32250000      11.32250000
W       11.32250000      11.32250000       8.08750000
W       11.32250000       8.08750000      11.32250000
W        8.08750000      11.32250000      11.32250000
